5052947457151702043502,14,1,2,03,1,1,2,013,8,1,2,04,11,1,2,01,5,1,2,014,13,1,2,012,2,1,2,015,13,1,2,08,4,1,2,09,7,1,2,015,15,1,2,03,15,1,2,08,11,1,2,08,9,1,2,015,14,1,2,013,13,1,2,07,6,1,2,012,7,1,2,02,12,1,2,02,14,1,2,01,1,1,2,04,4,1,2,09,10,1,2,01,8,1,2,05,7,1,2,03,3,1,2,09,6,1,2,09,8,1,2,014,1,1,2,011,9,1,2,014,1,1,2,03,9,1,2,09,8,1,2,014,2,1,2,010,13,1,2,09,9,1,2,010,6,1,2,05,8,1,2,06,10,1,2,010,3,1,2,012,3,1,2,09,3,1,2,02,13,1,2,08,1,1,2,02,12,1,2,01,6,1,2,05,7,1,2,08,4,1,2,03,12,1,2,06,4,1,2,0